************************************************************************
file with basedata            : mm26_.bas
initial value random generator: 258852259
************************************************************************
projects                      :  1
jobs (incl. supersource/sink ):  12
horizon                       :  75
RESOURCES
  - renewable                 :  2   R
  - nonrenewable              :  2   N
  - doubly constrained        :  0   D
************************************************************************
PROJECT INFORMATION:
pronr.  #jobs rel.date duedate tardcost  MPM-Time
    1     10      0       11        5       11
************************************************************************
PRECEDENCE RELATIONS:
jobnr.    #modes  #successors   successors
   0        1          3           1   2   3
   1        3          3           4   5   8
   2        3          1          10
   3        3          2           4   8
   4        3          3           6   7  10
   5        3          1           9
   6        3          1           9
   7        3          1           9
   8        3          1          11
   9        3          1          11
  10        3          1          11
  11        1          0        
************************************************************************
REQUESTS/DURATIONS:
jobnr. mode duration  R 1  R 2  R 3  R 4  E(W 1)
------------------------------------------------------------------------
  0      1     0       0    0    0    0     0
  1      1     2       6    0    9    0    30
  2      1     3       1    0    0    8    30
  3      1     2       0    9    0    8    34
  4      1     1       0    6    8    0    14
  5      1     1       4    0    4    0     8
  6      1     3       9    0    0    5    42
  7      1     3       0    9    8    0    51
  8      1     1       0    7   10    0    17
  9      1     2       0    6    7    0    26
 10      1     8       0    3    0    6    72
 11      1     0       0    0    0    0     0
************************************************************************
RESOURCEAVAILABILITIES:
  R 1
   108
************************************************************************
RESOURCE LIMITS:
jobnr.  l(R 1)  u(R 1)
------------------------------------------------------------------------
  0        0       0
  1        8      15
  2        5      10
  3        9      17
  4        7      14
  5        4       8
  6        8      14
  7        9      17
  8        9      17
  9        7      13
 10        5       9
 11        0       0
************************************************************************
SCENARIOS:
------------------------------------------------------------------------
RESOURCE k = 1
s = 1: (0, 29, 33, 39, 21, 9, 48, 56, 13, 38, 71, 0)
s = 2: (0, 22, 39, 32, 12, 10, 58, 53, 20, 30, 82, 0)
s = 3: (0, 29, 20, 36, 19, 13, 36, 83, 25, 24, 80, 0)
s = 4: (0, 33, 19, 20, 14, 6, 44, 46, 21, 24, 46, 0)
s = 5: (0, 43, 18, 37, 9, 11, 51, 57, 12, 33, 64, 0)
s = 6: (0, 57, 21, 25, 19, 8, 23, 44, 17, 38, 78, 0)
s = 7: (0, 32, 28, 37, 10, 7, 54, 47, 19, 39, 69, 0)
s = 8: (0, 21, 35, 38, 13, 8, 50, 44, 15, 22, 52, 0)
s = 9: (0, 18, 30, 24, 25, 6, 38, 53, 19, 28, 93, 0)
s = 10: (0, 49, 26, 43, 12, 8, 39, 45, 14, 23, 83, 0)
s = 11: (0, 21, 32, 55, 16, 9, 31, 40, 12, 26, 88, 0)
s = 12: (0, 45, 27, 36, 16, 12, 34, 52, 15, 25, 96, 0)
s = 13: (0, 25, 18, 44, 11, 7, 31, 34, 21, 38, 76, 0)
s = 14: (0, 34, 37, 42, 18, 7, 46, 49, 31, 34, 49, 0)
s = 15: (0, 37, 31, 25, 19, 7, 33, 36, 21, 26, 62, 0)
s = 16: (0, 31, 20, 34, 15, 7, 56, 68, 28, 20, 65, 0)
s = 17: (0, 28, 21, 56, 8, 10, 46, 32, 28, 18, 72, 0)
s = 18: (0, 34, 33, 43, 17, 8, 36, 53, 19, 23, 73, 0)
s = 19: (0, 28, 27, 29, 13, 12, 68, 57, 27, 17, 38, 0)
s = 20: (0, 24, 42, 20, 16, 9, 58, 39, 15, 15, 68, 0)
s = 21: (0, 35, 33, 38, 11, 9, 30, 36, 11, 44, 43, 0)
s = 22: (0, 25, 48, 46, 17, 6, 39, 51, 11, 32, 81, 0)
s = 23: (0, 26, 33, 54, 9, 6, 45, 42, 14, 27, 60, 0)
s = 24: (0, 32, 34, 24, 11, 7, 74, 44, 26, 15, 106, 0)
s = 25: (0, 24, 19, 42, 18, 8, 46, 56, 19, 30, 75, 0)
s = 26: (0, 25, 38, 36, 18, 10, 59, 62, 18, 24, 99, 0)
s = 27: (0, 41, 30, 30, 15, 10, 44, 42, 15, 24, 55, 0)
s = 28: (0, 39, 21, 29, 9, 9, 57, 42, 16, 24, 93, 0)
s = 29: (0, 22, 30, 46, 13, 7, 67, 56, 20, 27, 88, 0)
s = 30: (0, 21, 36, 22, 15, 8, 43, 53, 15, 22, 82, 0)
s = 31: (0, 32, 28, 25, 10, 8, 53, 33, 16, 25, 63, 0)
s = 32: (0, 36, 24, 30, 12, 8, 49, 27, 16, 25, 58, 0)
s = 33: (0, 23, 28, 27, 11, 7, 58, 51, 12, 37, 75, 0)
s = 34: (0, 31, 29, 29, 19, 10, 47, 62, 17, 21, 102, 0)
s = 35: (0, 30, 21, 30, 9, 7, 50, 36, 29, 20, 55, 0)
s = 36: (0, 25, 24, 36, 17, 9, 53, 32, 16, 41, 55, 0)
s = 37: (0, 40, 21, 21, 12, 8, 43, 41, 21, 33, 63, 0)
s = 38: (0, 32, 39, 40, 16, 13, 46, 39, 14, 43, 46, 0)
s = 39: (0, 31, 22, 24, 8, 9, 44, 49, 22, 28, 70, 0)
s = 40: (0, 41, 30, 25, 15, 9, 62, 42, 14, 22, 54, 0)
s = 41: (0, 25, 33, 30, 11, 9, 43, 38, 18, 26, 72, 0)
s = 42: (0, 17, 26, 50, 16, 9, 51, 61, 16, 19, 45, 0)
s = 43: (0, 20, 21, 49, 16, 6, 63, 57, 16, 27, 73, 0)
s = 44: (0, 27, 38, 43, 15, 11, 38, 65, 11, 29, 54, 0)
s = 45: (0, 43, 27, 47, 12, 11, 43, 52, 14, 33, 48, 0)
s = 46: (0, 20, 24, 36, 12, 11, 27, 45, 21, 27, 103, 0)
s = 47: (0, 33, 34, 24, 12, 9, 31, 43, 18, 40, 63, 0)
s = 48: (0, 24, 28, 30, 14, 7, 35, 46, 25, 33, 87, 0)
s = 49: (0, 31, 24, 20, 21, 6, 63, 34, 20, 24, 125, 0)
s = 50: (0, 29, 26, 34, 8, 7, 35, 56, 22, 34, 69, 0)
s = 51: (0, 23, 23, 36, 18, 6, 39, 71, 19, 29, 49, 0)
s = 52: (0, 48, 20, 33, 20, 13, 71, 44, 21, 29, 70, 0)
s = 53: (0, 43, 28, 19, 22, 7, 58, 38, 17, 26, 56, 0)
s = 54: (0, 36, 39, 33, 8, 11, 51, 44, 12, 32, 89, 0)
s = 55: (0, 31, 22, 44, 11, 9, 62, 62, 17, 29, 78, 0)
s = 56: (0, 21, 38, 34, 13, 5, 51, 31, 25, 19, 81, 0)
s = 57: (0, 21, 27, 41, 18, 11, 35, 46, 18, 23, 72, 0)
s = 58: (0, 27, 22, 25, 11, 7, 54, 79, 18, 41, 119, 0)
s = 59: (0, 44, 18, 49, 9, 6, 36, 41, 19, 22, 40, 0)
s = 60: (0, 26, 31, 34, 20, 12, 50, 89, 10, 23, 114, 0)
s = 61: (0, 19, 21, 33, 22, 7, 42, 52, 28, 24, 67, 0)
s = 62: (0, 18, 21, 25, 27, 14, 28, 70, 17, 33, 69, 0)
s = 63: (0, 28, 24, 42, 13, 6, 37, 59, 14, 21, 64, 0)
s = 64: (0, 26, 29, 26, 12, 7, 36, 73, 18, 40, 58, 0)
s = 65: (0, 20, 25, 18, 18, 11, 42, 29, 23, 27, 59, 0)
s = 66: (0, 21, 20, 34, 12, 9, 34, 37, 25, 27, 89, 0)
s = 67: (0, 38, 34, 32, 12, 9, 55, 41, 26, 23, 70, 0)
s = 68: (0, 25, 28, 32, 20, 11, 36, 55, 19, 35, 103, 0)
s = 69: (0, 24, 43, 44, 11, 14, 37, 32, 20, 36, 47, 0)
s = 70: (0, 30, 25, 41, 16, 11, 58, 42, 15, 24, 63, 0)
s = 71: (0, 28, 33, 42, 10, 11, 64, 30, 16, 23, 47, 0)
s = 72: (0, 25, 23, 32, 21, 7, 33, 76, 24, 14, 89, 0)
s = 73: (0, 39, 30, 31, 16, 8, 44, 64, 19, 21, 89, 0)
s = 74: (0, 37, 35, 33, 8, 12, 29, 45, 15, 21, 72, 0)
s = 75: (0, 31, 27, 35, 10, 13, 37, 45, 23, 16, 78, 0)
s = 76: (0, 20, 23, 31, 20, 8, 28, 59, 15, 18, 66, 0)
s = 77: (0, 30, 17, 41, 11, 9, 27, 43, 12, 24, 63, 0)
s = 78: (0, 51, 18, 35, 15, 10, 47, 34, 20, 32, 107, 0)
s = 79: (0, 29, 27, 47, 14, 9, 62, 65, 15, 30, 83, 0)
s = 80: (0, 30, 29, 38, 25, 11, 28, 47, 17, 29, 88, 0)
s = 81: (0, 29, 37, 22, 10, 9, 32, 60, 18, 30, 85, 0)
s = 82: (0, 40, 21, 34, 19, 7, 53, 50, 24, 41, 94, 0)
s = 83: (0, 38, 27, 35, 14, 10, 61, 54, 16, 28, 48, 0)
s = 84: (0, 17, 17, 34, 16, 10, 29, 29, 24, 25, 59, 0)
s = 85: (0, 30, 21, 50, 21, 6, 28, 50, 10, 38, 68, 0)
s = 86: (0, 18, 28, 39, 17, 9, 45, 53, 18, 21, 82, 0)
s = 87: (0, 35, 26, 42, 14, 8, 28, 79, 19, 22, 68, 0)
s = 88: (0, 25, 25, 32, 14, 6, 25, 35, 13, 38, 91, 0)
s = 89: (0, 34, 57, 32, 12, 10, 34, 31, 27, 30, 48, 0)
s = 90: (0, 19, 32, 30, 11, 7, 43, 63, 17, 18, 73, 0)
s = 91: (0, 21, 27, 34, 17, 8, 40, 55, 21, 29, 62, 0)
s = 92: (0, 36, 27, 36, 17, 11, 40, 55, 13, 17, 70, 0)
s = 93: (0, 26, 40, 23, 12, 8, 41, 38, 16, 17, 67, 0)
s = 94: (0, 48, 27, 23, 20, 8, 43, 32, 16, 29, 72, 0)
s = 95: (0, 29, 27, 42, 9, 8, 44, 62, 16, 38, 43, 0)
s = 96: (0, 31, 32, 22, 10, 8, 52, 62, 12, 22, 74, 0)
s = 97: (0, 43, 22, 46, 8, 7, 52, 34, 25, 24, 76, 0)
s = 98: (0, 23, 34, 42, 9, 12, 40, 34, 15, 24, 95, 0)
s = 99: (0, 24, 21, 38, 13, 10, 27, 33, 27, 32, 66, 0)
s = 100: (0, 33, 43, 26, 16, 11, 43, 72, 11, 24, 105, 0)
s = 101: (0, 31, 30, 31, 15, 6, 44, 49, 11, 42, 76, 0)
s = 102: (0, 28, 37, 24, 11, 12, 65, 71, 10, 25, 79, 0)
s = 103: (0, 32, 24, 42, 16, 7, 32, 34, 22, 18, 72, 0)
s = 104: (0, 26, 30, 25, 11, 11, 28, 34, 13, 38, 79, 0)
s = 105: (0, 42, 35, 32, 11, 11, 34, 45, 25, 24, 43, 0)
s = 106: (0, 23, 26, 47, 10, 10, 43, 47, 26, 19, 88, 0)
s = 107: (0, 27, 41, 39, 11, 6, 55, 53, 11, 26, 52, 0)
s = 108: (0, 23, 51, 30, 12, 12, 39, 75, 20, 20, 53, 0)
s = 109: (0, 37, 41, 27, 24, 8, 39, 43, 19, 16, 62, 0)
s = 110: (0, 31, 28, 46, 14, 10, 37, 56, 21, 20, 84, 0)
s = 111: (0, 24, 31, 29, 16, 7, 39, 47, 13, 33, 72, 0)
s = 112: (0, 18, 23, 23, 15, 9, 38, 69, 15, 19, 62, 0)
s = 113: (0, 21, 23, 47, 13, 8, 46, 40, 20, 26, 40, 0)
s = 114: (0, 30, 23, 27, 16, 7, 37, 39, 28, 29, 86, 0)
s = 115: (0, 24, 19, 32, 19, 12, 37, 42, 12, 26, 91, 0)
s = 116: (0, 22, 23, 25, 16, 8, 32, 38, 21, 26, 53, 0)
s = 117: (0, 29, 24, 22, 15, 6, 30, 48, 18, 19, 47, 0)
s = 118: (0, 31, 37, 45, 14, 5, 34, 39, 11, 29, 66, 0)
s = 119: (0, 37, 34, 46, 19, 12, 59, 69, 11, 20, 53, 0)
s = 120: (0, 23, 20, 28, 22, 7, 47, 33, 22, 18, 60, 0)
s = 121: (0, 19, 44, 34, 14, 6, 34, 43, 16, 20, 55, 0)
s = 122: (0, 35, 37, 26, 13, 8, 36, 70, 16, 26, 100, 0)
s = 123: (0, 24, 26, 24, 12, 14, 47, 33, 19, 17, 97, 0)
s = 124: (0, 34, 25, 39, 13, 7, 44, 55, 30, 24, 74, 0)
s = 125: (0, 30, 22, 46, 11, 7, 44, 60, 18, 28, 60, 0)
s = 126: (0, 41, 25, 35, 16, 8, 61, 71, 13, 23, 55, 0)
s = 127: (0, 26, 18, 28, 15, 13, 32, 37, 25, 16, 65, 0)
s = 128: (0, 34, 46, 40, 17, 10, 36, 39, 12, 29, 57, 0)
s = 129: (0, 28, 40, 21, 16, 10, 28, 63, 15, 30, 66, 0)
s = 130: (0, 34, 30, 37, 17, 10, 25, 56, 16, 22, 99, 0)
s = 131: (0, 23, 30, 52, 15, 10, 28, 32, 12, 24, 73, 0)
s = 132: (0, 28, 32, 26, 20, 8, 53, 48, 18, 24, 75, 0)
s = 133: (0, 29, 23, 41, 14, 7, 40, 56, 13, 24, 68, 0)
s = 134: (0, 28, 24, 27, 10, 8, 30, 75, 25, 23, 92, 0)
s = 135: (0, 26, 22, 20, 10, 13, 37, 47, 14, 17, 109, 0)
s = 136: (0, 26, 27, 31, 14, 8, 79, 44, 12, 21, 64, 0)
s = 137: (0, 31, 36, 29, 13, 7, 60, 43, 16, 22, 46, 0)
s = 138: (0, 27, 30, 55, 14, 8, 26, 41, 29, 30, 55, 0)
s = 139: (0, 28, 39, 35, 28, 10, 28, 57, 19, 24, 54, 0)
s = 140: (0, 28, 34, 32, 18, 14, 38, 29, 16, 37, 67, 0)
s = 141: (0, 26, 21, 51, 12, 10, 36, 56, 22, 32, 79, 0)
s = 142: (0, 37, 34, 27, 13, 9, 62, 45, 10, 32, 78, 0)
s = 143: (0, 31, 37, 25, 14, 9, 49, 38, 11, 39, 66, 0)
s = 144: (0, 38, 34, 41, 12, 8, 48, 30, 24, 17, 53, 0)
s = 145: (0, 32, 21, 27, 14, 8, 32, 67, 9, 16, 50, 0)
s = 146: (0, 26, 23, 32, 16, 12, 58, 75, 14, 35, 104, 0)
s = 147: (0, 44, 19, 26, 10, 8, 65, 52, 11, 19, 68, 0)
s = 148: (0, 43, 27, 22, 11, 8, 37, 35, 12, 34, 49, 0)
s = 149: (0, 28, 31, 19, 11, 8, 45, 61, 15, 32, 77, 0)
s = 150: (0, 20, 19, 21, 14, 7, 63, 58, 14, 27, 55, 0)
s = 151: (0, 44, 18, 28, 15, 12, 50, 80, 27, 37, 74, 0)
s = 152: (0, 26, 33, 30, 14, 10, 32, 32, 19, 30, 62, 0)
s = 153: (0, 36, 36, 29, 9, 9, 42, 38, 17, 18, 65, 0)
s = 154: (0, 25, 25, 31, 23, 11, 54, 68, 18, 19, 43, 0)
s = 155: (0, 23, 22, 35, 14, 7, 62, 43, 20, 35, 110, 0)
s = 156: (0, 22, 29, 41, 15, 9, 37, 55, 15, 21, 85, 0)
s = 157: (0, 29, 43, 24, 13, 9, 36, 45, 11, 26, 49, 0)
s = 158: (0, 39, 22, 39, 9, 11, 28, 65, 23, 21, 108, 0)
s = 159: (0, 20, 35, 52, 16, 7, 34, 42, 29, 20, 63, 0)
s = 160: (0, 29, 21, 23, 16, 7, 36, 43, 22, 19, 71, 0)
s = 161: (0, 24, 47, 23, 15, 9, 55, 91, 25, 33, 66, 0)
s = 162: (0, 43, 20, 34, 10, 11, 48, 58, 26, 23, 48, 0)
s = 163: (0, 24, 29, 52, 15, 10, 28, 64, 15, 25, 85, 0)
s = 164: (0, 33, 36, 29, 23, 7, 31, 56, 17, 40, 64, 0)
s = 165: (0, 29, 22, 34, 15, 5, 31, 37, 12, 21, 61, 0)
s = 166: (0, 30, 35, 45, 13, 10, 37, 51, 23, 26, 68, 0)
s = 167: (0, 31, 35, 39, 18, 7, 59, 40, 13, 31, 96, 0)
s = 168: (0, 18, 20, 64, 16, 10, 53, 55, 18, 20, 91, 0)
s = 169: (0, 32, 40, 33, 15, 8, 43, 38, 24, 25, 115, 0)
s = 170: (0, 18, 31, 37, 12, 15, 40, 39, 20, 31, 95, 0)
s = 171: (0, 24, 18, 30, 14, 6, 30, 30, 22, 36, 50, 0)
s = 172: (0, 27, 20, 30, 13, 6, 42, 48, 17, 15, 58, 0)
s = 173: (0, 42, 22, 30, 18, 9, 46, 60, 12, 21, 62, 0)
s = 174: (0, 33, 48, 36, 20, 6, 39, 63, 18, 41, 48, 0)
s = 175: (0, 48, 34, 35, 10, 8, 57, 44, 10, 31, 52, 0)
s = 176: (0, 30, 26, 37, 17, 9, 36, 46, 11, 37, 78, 0)
s = 177: (0, 39, 39, 30, 12, 6, 34, 67, 21, 22, 40, 0)
s = 178: (0, 30, 31, 47, 15, 8, 43, 53, 27, 18, 54, 0)
s = 179: (0, 25, 33, 33, 15, 10, 27, 46, 21, 21, 89, 0)
s = 180: (0, 52, 34, 51, 9, 7, 57, 55, 15, 27, 78, 0)
s = 181: (0, 17, 24, 24, 21, 11, 24, 65, 13, 40, 71, 0)
s = 182: (0, 27, 51, 51, 12, 8, 40, 78, 12, 33, 65, 0)
s = 183: (0, 23, 22, 38, 9, 11, 36, 26, 13, 23, 46, 0)
s = 184: (0, 37, 32, 47, 12, 5, 50, 69, 14, 21, 64, 0)
s = 185: (0, 47, 32, 23, 14, 9, 77, 30, 21, 24, 87, 0)
s = 186: (0, 37, 31, 35, 14, 6, 27, 54, 18, 30, 44, 0)
s = 187: (0, 39, 24, 33, 22, 8, 42, 41, 18, 26, 44, 0)
s = 188: (0, 29, 20, 42, 11, 8, 31, 49, 17, 22, 56, 0)
s = 189: (0, 28, 32, 20, 25, 5, 43, 43, 19, 26, 65, 0)
s = 190: (0, 37, 31, 34, 9, 12, 30, 52, 18, 25, 98, 0)
s = 191: (0, 27, 20, 30, 20, 13, 35, 65, 16, 27, 92, 0)
s = 192: (0, 41, 18, 29, 13, 6, 48, 52, 12, 24, 76, 0)
s = 193: (0, 53, 23, 24, 18, 9, 37, 86, 31, 27, 83, 0)
s = 194: (0, 37, 28, 63, 21, 5, 42, 68, 17, 40, 56, 0)
s = 195: (0, 21, 33, 28, 11, 7, 41, 38, 10, 15, 91, 0)
s = 196: (0, 29, 25, 24, 11, 8, 32, 40, 18, 39, 69, 0)
s = 197: (0, 27, 47, 49, 25, 7, 27, 39, 30, 34, 85, 0)
s = 198: (0, 27, 24, 34, 22, 8, 36, 61, 10, 18, 71, 0)
s = 199: (0, 23, 22, 36, 11, 9, 52, 32, 15, 31, 72, 0)
s = 200: (0, 28, 30, 46, 11, 7, 33, 45, 16, 34, 67, 0)
************************************************************************
ES/LS-VALUES:
jobnr.   ES(i)    LS(i)
------------------------------------------------------------------------
  0        0        0
  1        0       55
  2        0       55
  3        0       55
  4        3       59
  5        3       69
  6        5       65
  7        5       65
  8        3       73
  9       10       71
 10        5       61
 11       18       75
************************************************************************
BIG-M-VALUES:
M1 = 25, M2 = 125
************************************************************************
